p cnf 64 73
-1 2 7 22 43 62 -63 -64 0 
-2 1 7 22 43 62 -63 -64 0 
-3 63 -64 0 
-4 6 15 17 20 36 63 -64 0 
-5 47 58 62 -63 -64 0 
-6 4 15 17 20 36 62 -63 -64 0 
-7 1 2 22 43 62 -63 -64 0 
-8 48 62 -63 -64 0 
-9 62 -63 -64 0 
-10 55 62 -63 -64 0 
-11 -12 37 46 63 -64 0 
-13 -12 37 46 63 -64 0 
-14 62 -63 -64 0 
-15 4 6 17 20 36 64 -63 0 
-16 64 -63 0 
-17 4 6 15 20 36 62 -63 -64 0 
-18 64 -63 0 
-19 64 -63 0 
-20 4 6 15 17 36 62 -63 -64 0 
-21 -9 62 -63 -64 0 
-22 1 2 7 43 62 -63 -64 0 
-23 64 -63 0 
-24 33 62 -63 -64 0 
-25 28 34 62 -63 -64 0 
-26 64 -63 0 
-27 41 64 -63 0 
-28 25 34 62 -63 -64 0 
-29 62 -63 -64 0 
-30 -31 -32 62 -63 -64 0 
-33 24 62 -63 -64 0 
-34 25 28 -15 4 6 17 20 36 64 -63 0 
-7 1 2 22 43 -35 62 -63 -64 0 
-36 4 6 15 17 20 -35 62 -63 -64 0 
-37 12 46 -38 62 -63 -64 0 
-39 64 -63 0 
-9 -40 62 -63 -64 0 
-35 62 -63 -64 0 
-41 27 -37 12 46 62 -63 -64 0 
-42 63 -64 0 
-43 1 2 7 22 63 -64 0 
-36 4 6 15 17 20 -44 -45 52 -46 12 37 62 -63 -64 0 
-47 5 58 62 -63 -64 0 
-36 4 6 15 17 20 -38 62 -63 -64 0 
-48 8 62 -63 -64 0 
-38 63 -64 0 
-9 -49 -50 62 -63 -64 0 
-13 63 -64 0 
-51 63 -64 0 
-11 -52 45 63 -64 0 
-36 4 6 15 17 20 -45 52 -35 62 -63 -64 0 
-7 1 2 22 43 -45 52 -35 62 -63 -64 0 
-9 -45 52 -52 45 62 -63 -64 0 
-45 52 -35 62 -63 -64 0 
-53 62 -63 -64 0 
-13 62 -63 -64 0 
-54 62 -63 -64 0 
-51 62 -63 -64 0 
-34 25 28 62 -63 -64 0 
-55 10 62 -63 -64 0 
-11 63 -64 0 
-34 25 28 63 -64 0 
-53 -56 62 -63 -64 0 
-34 25 28 -57 64 -63 0 
-9 63 -64 0 
-41 27 63 -64 0 
-58 5 47 62 -63 -64 0 
-59 63 -64 0 
-3 -59 63 -64 0 
-9 -21 -60 62 -63 -64 0 
-8 48 62 -63 -64 0 
-5 47 58 62 -63 -64 0 
-41 27 -59 63 -64 0 
-53 -37 12 46 -38 -61 62 -63 -64 0 
